NAME : n80w140.001.689.tour
COMMENT : Length = 689
COMMENT : Found by LKH [Keld Helsgaun] Tue Nov  7 19:39:25 2017
TYPE : TOUR
DIMENSION : 81
TOUR_SECTION
1
6
57
39
54
18
52
61
55
62
28
51
20
5
7
35
25
34
10
71
46
15
31
70
4
72
14
73
50
37
67
21
43
42
56
59
13
26
65
9
58
69
79
30
49
60
80
16
45
27
36
22
53
33
2
8
32
47
77
17
11
29
75
76
63
48
74
40
44
19
38
66
64
68
41
78
24
3
12
81
23
-1
EOF
